<number of tasks>
100

<cycle time>
1000

<order strength>
0.195


<task times>
1 134
2 242
3 67
4 184
5 198
6 154
7 100
8 160
9 32
10 67
11 61
12 174
13 76
14 72
15 62
16 256
17 102
18 320
19 47
20 106
21 283
22 89
23 115
24 117
25 137
26 202
27 37
28 189
29 109
30 64
31 46
32 116
33 234
34 78
35 92
36 156
37 123
38 110
39 47
40 179
41 147
42 161
43 200
44 43
45 216
46 466
47 27
48 203
49 107
50 156
51 89
52 136
53 364
54 167
55 81
56 205
57 134
58 64
59 68
60 132
61 80
62 62
63 134
64 85
65 219
66 81
67 128
68 154
69 52
70 22
71 33
72 106
73 130
74 34
75 50
76 106
77 199
78 100
79 224
80 75
81 129
82 107
83 74
84 96
85 80
86 48
87 233
88 156
89 77
90 190
91 354
92 134
93 183
94 223
95 68
96 255
97 144
98 66
99 356
100 75

<precedence relations>
1,15
2,15
3,15
4,15
5,8
5,11
6,9
6,13
7,10
7,12
7,14
8,15
9,66
10,17
10,18
11,19
11,20
11,21
12,16
15,22
15,23
15,24
15,25
15,26
15,27
16,66
17,29
18,28
18,32
20,30
21,31
22,34
22,35
22,39
27,37
27,40
28,33
29,36
30,38
31,41
33,42
34,45
35,46
36,47
37,43
37,44
38,49
39,48
39,50
39,51
41,52
42,66
43,66
44,54
45,55
46,58
47,57
48,56
48,62
48,64
48,65
49,53
49,63
50,60
50,61
51,59
53,66
54,68
55,69
56,67
57,70
61,72
61,98
62,73
63,71
66,74
66,75
66,76
66,77
66,78
67,79
68,80
69,81
76,87
76,88
77,85
79,82
80,84
81,83
81,86
82,89
83,90
84,91
85,92
89,93
90,94
91,95
91,97
91,99
91,100
92,96
92,98

<end>
